rcpsp/heur_output_log_0/heurj120.txt
encoding rcpsp/j120.sm/j12053_7.sm nv: 4667616 nc: 9561616 enctime: 86.71
encoding rcpsp/j120.sm/j12053_7.sm nv: 907592 nc: 1854779 enctime: 11.68
c File: j12053_7.smnaiveor1000.wcnf
c timeout
c final solution cost: 145
c CPU time: 71.400629
s UNKNOWN

c File: j12053_7.smor1000.wcnf
c timeout
c final solution cost: 125
c CPU time: 61.486829
s UNKNOWN


rcpsp/heur_output_log_0/heurj120.txt
encoding rcpsp/j120.sm/j12053_8.sm nv: 3673614 nc: 7563152 enctime: 70.58
encoding rcpsp/j120.sm/j12053_8.sm nv: 876531 nc: 1800650 enctime: 11.00
c File: j12053_8.smnaiveor1000.wcnf
c timeout
c final solution cost: 151
c CPU time: 69.522032
s UNKNOWN

c File: j12053_8.smor1000.wcnf
c timeout
c final solution cost: 148
c CPU time: 61.468154
s UNKNOWN


rcpsp/heur_output_log_0/heurj120.txt
encoding rcpsp/j120.sm/j12053_9.sm nv: 3344016 nc: 6955558 enctime: 68.54
encoding rcpsp/j120.sm/j12053_9.sm nv: 971152 nc: 2015894 enctime: 12.06
c File: j12053_9.smnaiveor1000.wcnf
c timeout
c final solution cost: 179
c CPU time: 69.201973
s UNKNOWN

c File: j12053_9.smor1000.wcnf
c timeout
c final solution cost: 176
c CPU time: 61.709472
s UNKNOWN


rcpsp/heur_output_log_0/heurj120.txt
encoding rcpsp/j120.sm/j1205_3.sm nv: 1123254 nc: 2435477 enctime: 28.05
encoding rcpsp/j120.sm/j1205_3.sm nv: 127224 nc: 271462 enctime: 1.25
c File: j1205_3.smnaiveor1000.wcnf
c optimal
c final solution cost: 72
c CPU time: 6.417446
s OPTIMUM FOUND

c File: j1205_3.smor1000.wcnf
c optimal
c final solution cost: 72
c CPU time: 0.317988
s OPTIMUM FOUND


rcpsp/heur_output_log_0/heurj120.txt
encoding rcpsp/j120.sm/j12054_10.sm nv: 4424112 nc: 9008380 enctime: 75.67
encoding rcpsp/j120.sm/j12054_10.sm nv: 861840 nc: 1750908 enctime: 10.63
c File: j12054_10.smnaiveor1000.wcnf
c timeout
c final solution cost: 111
c CPU time: 69.865574
s UNKNOWN

c File: j12054_10.smor1000.wcnf
c timeout
c final solution cost: 111
c CPU time: 61.339611
s UNKNOWN


rcpsp/heur_output_log_0/heurj120.txt
encoding rcpsp/j120.sm/j12054_1.sm nv: 4156780 nc: 8474172 enctime: 71.96
encoding rcpsp/j120.sm/j12054_1.sm nv: 805630 nc: 1638717 enctime: 9.82
c File: j12054_1.smnaiveor1000.wcnf
c timeout
c final solution cost: 112
c CPU time: 69.103576
s UNKNOWN

c File: j12054_1.smor1000.wcnf
c timeout
c final solution cost: 112
c CPU time: 61.255771
s UNKNOWN


rcpsp/heur_output_log_0/heurj120.txt
encoding rcpsp/j120.sm/j12054_2.sm nv: 4565956 nc: 9325640 enctime: 81.04
encoding rcpsp/j120.sm/j12054_2.sm nv: 1015435 nc: 2069963 enctime: 12.45
c File: j12054_2.smnaiveor1000.wcnf
c optimal
c final solution cost: 134
c CPU time: 17.658657
s OPTIMUM FOUND

c File: j12054_2.smor1000.wcnf
c optimal
c final solution cost: 134
c CPU time: 4.723959
s OPTIMUM FOUND


rcpsp/heur_output_log_0/heurj120.txt
encoding rcpsp/j120.sm/j12054_3.sm nv: 5157936 nc: 10534675 enctime: 90.38
encoding rcpsp/j120.sm/j12054_3.sm nv: 907137 nc: 1848235 enctime: 11.33
c File: j12054_3.smnaiveor1000.wcnf
c timeout
c final solution cost: 118
c CPU time: 71.959283
s UNKNOWN

c File: j12054_3.smor1000.wcnf
c timeout
c final solution cost: 112
c CPU time: 61.396163
s UNKNOWN


rcpsp/heur_output_log_0/heurj120.txt
encoding rcpsp/j120.sm/j12054_4.sm nv: 4124575 nc: 8431601 enctime: 73.90
encoding rcpsp/j120.sm/j12054_4.sm nv: 841750 nc: 1716893 enctime: 10.41
c File: j12054_4.smnaiveor1000.wcnf
c timeout
c final solution cost: 125
c CPU time: 69.395011
s UNKNOWN

c File: j12054_4.smor1000.wcnf
c timeout
c final solution cost: 124
c CPU time: 61.309978
s UNKNOWN


rcpsp/heur_output_log_0/heurj120.txt
encoding rcpsp/j120.sm/j12054_5.sm nv: 4648416 nc: 9486573 enctime: 81.72
encoding rcpsp/j120.sm/j12054_5.sm nv: 843234 nc: 1716720 enctime: 10.62
c File: j12054_5.smnaiveor1000.wcnf
c timeout
c final solution cost: 115
c CPU time: 70.741289
s UNKNOWN

c File: j12054_5.smor1000.wcnf
c timeout
c final solution cost: 116
c CPU time: 61.332890
s UNKNOWN


rcpsp/heur_output_log_0/heurj120.txt
encoding rcpsp/j120.sm/j12054_6.sm nv: 4821066 nc: 9834688 enctime: 88.22
encoding rcpsp/j120.sm/j12054_6.sm nv: 895236 nc: 1821993 enctime: 11.65
c File: j12054_6.smnaiveor1000.wcnf
c timeout
c final solution cost: 120
c CPU time: 71.316639
s UNKNOWN

c File: j12054_6.smor1000.wcnf
c timeout
c final solution cost: 114
c CPU time: 61.422734
s UNKNOWN


rcpsp/heur_output_log_0/heurj120.txt
encoding rcpsp/j120.sm/j12054_7.sm nv: 4160160 nc: 8515560 enctime: 78.15
encoding rcpsp/j120.sm/j12054_7.sm nv: 828180 nc: 1691229 enctime: 10.54
c File: j12054_7.smnaiveor1000.wcnf
c timeout
c final solution cost: 195
c CPU time: 69.836098
s UNKNOWN

c File: j12054_7.smor1000.wcnf
c timeout
c final solution cost: 115
c CPU time: 61.343050
s UNKNOWN


rcpsp/heur_output_log_0/heurj120.txt
encoding rcpsp/j120.sm/j12054_8.sm nv: 4606010 nc: 9387245 enctime: 81.79
encoding rcpsp/j120.sm/j12054_8.sm nv: 813680 nc: 1654337 enctime: 10.26
c File: j12054_8.smnaiveor1000.wcnf
c timeout
c final solution cost: 155
c CPU time: 70.585430
s UNKNOWN

c File: j12054_8.smor1000.wcnf
c timeout
c final solution cost: 108
c CPU time: 61.282646
s UNKNOWN


rcpsp/heur_output_log_0/heurj120.txt
encoding rcpsp/j120.sm/j12054_9.sm nv: 4326030 nc: 8839604 enctime: 76.18
encoding rcpsp/j120.sm/j12054_9.sm nv: 805630 nc: 1642284 enctime: 10.21
c File: j12054_9.smnaiveor1000.wcnf
c timeout
c final solution cost: 120
c CPU time: 70.490938
s UNKNOWN

c File: j12054_9.smor1000.wcnf
c timeout
c final solution cost: 117
c CPU time: 61.315785
s UNKNOWN


rcpsp/heur_output_log_0/heurj120.txt
encoding rcpsp/j120.sm/j1205_4.sm nv: 1130040 nc: 2431227 enctime: 28.31
encoding rcpsp/j120.sm/j1205_4.sm nv: 173720 nc: 369579 enctime: 2.60
c File: j1205_4.smnaiveor1000.wcnf
c optimal
c final solution cost: 97
c CPU time: 6.975552
s OPTIMUM FOUND

c File: j1205_4.smor1000.wcnf
c optimal
c final solution cost: 97
c CPU time: 0.467996
s OPTIMUM FOUND


rcpsp/heur_output_log_0/heurj120.txt
encoding rcpsp/j120.sm/j12055_10.sm nv: 5336960 nc: 10841189 enctime: 91.75
encoding rcpsp/j120.sm/j12055_10.sm nv: 875595 nc: 1774544 enctime: 11.44
c File: j12055_10.smnaiveor1000.wcnf
c optimal
c final solution cost: 100
c CPU time: 45.881919
s OPTIMUM FOUND

c File: j12055_10.smor1000.wcnf
c optimal
c final solution cost: 100
c CPU time: 2.852299
s OPTIMUM FOUND


rcpsp/heur_output_log_0/heurj120.txt
encoding rcpsp/j120.sm/j12055_1.sm nv: 5029260 nc: 10244352 enctime: 87.62
encoding rcpsp/j120.sm/j12055_1.sm nv: 868970 nc: 1765800 enctime: 11.01
c File: j12055_1.smnaiveor1000.wcnf
c timeout
c final solution cost: 103
c CPU time: 71.312756
s UNKNOWN

c File: j12055_1.smor1000.wcnf
c timeout
c final solution cost: 103
c CPU time: 61.339363
s UNKNOWN


rcpsp/heur_output_log_0/heurj120.txt
encoding rcpsp/j120.sm/j12055_2.sm nv: 6151235 nc: 12416358 enctime: 99.49
encoding rcpsp/j120.sm/j12055_2.sm nv: 880210 nc: 1772853 enctime: 11.67
c File: j12055_2.smnaiveor1000.wcnf
c optimal
c final solution cost: 83
c CPU time: 18.622334
s OPTIMUM FOUND

c File: j12055_2.smor1000.wcnf
c optimal
c final solution cost: 83
c CPU time: 2.750186
s OPTIMUM FOUND


rcpsp/heur_output_log_0/heurj120.txt
encoding rcpsp/j120.sm/j12055_3.sm nv: 4905582 nc: 9985583 enctime: 84.52
encoding rcpsp/j120.sm/j12055_3.sm nv: 984192 nc: 1999493 enctime: 12.21
c File: j12055_3.smnaiveor1000.wcnf
c optimal
c final solution cost: 126
c CPU time: 16.343182
s OPTIMUM FOUND

c File: j12055_3.smor1000.wcnf
c optimal
c final solution cost: 126
c CPU time: 2.873920
s OPTIMUM FOUND


rcpsp/heur_output_log_0/heurj120.txt
encoding rcpsp/j120.sm/j12055_4.sm nv: 6456204 nc: 13086179 enctime: 109.19
encoding rcpsp/j120.sm/j12055_4.sm nv: 969400 nc: 1960317 enctime: 12.93
c File: j12055_4.smnaiveor1000.wcnf
c optimal
c final solution cost: 90
c CPU time: 46.419549
s OPTIMUM FOUND

c File: j12055_4.smor1000.wcnf
c optimal
c final solution cost: 90
c CPU time: 10.199572
s OPTIMUM FOUND


rcpsp/heur_output_log_0/heurj120.txt
encoding rcpsp/j120.sm/j12055_5.sm nv: 6434890 nc: 13047743 enctime: 108.26
encoding rcpsp/j120.sm/j12055_5.sm nv: 1054900 nc: 2134610 enctime: 13.90
c File: j12055_5.smnaiveor1000.wcnf
c optimal
c final solution cost: 106
c CPU time: 23.450175
s OPTIMUM FOUND

c File: j12055_5.smor1000.wcnf
c optimal
c final solution cost: 106
c CPU time: 4.724288
s OPTIMUM FOUND


rcpsp/heur_output_log_0/heurj120.txt
encoding rcpsp/j120.sm/j12055_6.sm nv: 5235706 nc: 10663003 enctime: 89.85
encoding rcpsp/j120.sm/j12055_6.sm nv: 867313 nc: 1762066 enctime: 11.22
c File: j12055_6.smnaiveor1000.wcnf
c timeout
c final solution cost: 122
c CPU time: 71.766265
s UNKNOWN

c File: j12055_6.smor1000.wcnf
c timeout
c final solution cost: 105
c CPU time: 61.367513
s UNKNOWN


rcpsp/heur_output_log_0/heurj120.txt
encoding rcpsp/j120.sm/j12055_7.sm nv: 7096496 nc: 14349041 enctime: 116.23
encoding rcpsp/j120.sm/j12055_7.sm nv: 1148752 nc: 2318377 enctime: 14.50
c File: j12055_7.smnaiveor1000.wcnf
c optimal
c final solution cost: 105
c CPU time: 21.147069
s OPTIMUM FOUND

c File: j12055_7.smor1000.wcnf
c optimal
c final solution cost: 105
c CPU time: 3.569101
s OPTIMUM FOUND


rcpsp/heur_output_log_0/heurj120.txt
encoding rcpsp/j120.sm/j12055_8.sm nv: 5670567 nc: 11521237 enctime: 94.94
encoding rcpsp/j120.sm/j12055_8.sm nv: 940779 nc: 1907125 enctime: 12.10
c File: j12055_8.smnaiveor1000.wcnf
c timeout
c final solution cost: 103
c CPU time: 72.248073
s UNKNOWN

c File: j12055_8.smor1000.wcnf
c optimal
c final solution cost: 101
c CPU time: 51.434960
s OPTIMUM FOUND


rcpsp/heur_output_log_0/heurj120.txt
encoding rcpsp/j120.sm/j12055_9.sm nv: 5497584 nc: 11154317 enctime: 93.92
encoding rcpsp/j120.sm/j12055_9.sm nv: 838468 nc: 1697023 enctime: 11.08
c File: j12055_9.smnaiveor1000.wcnf
c optimal
c final solution cost: 94
c CPU time: 51.596327
s OPTIMUM FOUND

c File: j12055_9.smor1000.wcnf
c optimal
c final solution cost: 94
c CPU time: 8.423639
s OPTIMUM FOUND


rcpsp/heur_output_log_0/heurj120.txt
encoding rcpsp/j120.sm/j1205_5.sm nv: 1300203 nc: 2759790 enctime: 30.51
encoding rcpsp/j120.sm/j1205_5.sm nv: 158320 nc: 331774 enctime: 1.56
c File: j1205_5.smnaiveor1000.wcnf
c optimal
c final solution cost: 77
c CPU time: 7.464251
s OPTIMUM FOUND

c File: j1205_5.smor1000.wcnf
c optimal
c final solution cost: 77
c CPU time: 0.479210
s OPTIMUM FOUND


rcpsp/heur_output_log_0/heurj120.txt
encoding rcpsp/j120.sm/j12056_10.sm nv: 3255716 nc: 6751189 enctime: 65.54
encoding rcpsp/j120.sm/j12056_10.sm nv: 1460646 nc: 3025999 enctime: 20.47
c File: j12056_10.smnaiveor1000.wcnf
c timeout
c final solution cost: 348
c CPU time: 69.117351
s UNKNOWN

c File: j12056_10.smor1000.wcnf
c timeout
c CPU time: 62.610673
s UNKNOWN


rcpsp/heur_output_log_0/heurj120.txt
encoding rcpsp/j120.sm/j12056_1.sm nv: 3149952 nc: 6501036 enctime: 61.30
encoding rcpsp/j120.sm/j12056_1.sm nv: 1403344 nc: 2893640 enctime: 19.54
c File: j12056_1.smnaiveor1000.wcnf
c timeout
c final solution cost: 450
c CPU time: 68.397101
s UNKNOWN

c File: j12056_1.smor1000.wcnf
c timeout
c CPU time: 62.442032
s UNKNOWN


rcpsp/heur_output_log_0/heurj120.txt
encoding rcpsp/j120.sm/j12056_2.sm nv: 3223804 nc: 6612974 enctime: 58.89
encoding rcpsp/j120.sm/j12056_2.sm nv: 1263160 nc: 2588513 enctime: 16.99
c File: j12056_2.smnaiveor1000.wcnf
c timeout
c final solution cost: 245
c CPU time: 67.908559
s UNKNOWN

c File: j12056_2.smor1000.wcnf
c timeout
c CPU time: 62.087779
s UNKNOWN


rcpsp/heur_output_log_0/heurj120.txt
encoding rcpsp/j120.sm/j12056_3.sm nv: 3397424 nc: 7025902 enctime: 65.51
encoding rcpsp/j120.sm/j12056_3.sm nv: 1434583 nc: 2963780 enctime: 21.77
c File: j12056_3.smnaiveor1000.wcnf
c timeout
c final solution cost: 311
c CPU time: 69.171928
s UNKNOWN

c File: j12056_3.smor1000.wcnf
c timeout
c CPU time: 62.466903
s UNKNOWN


rcpsp/heur_output_log_0/heurj120.txt
encoding rcpsp/j120.sm/j12056_4.sm nv: 2842026 nc: 5843271 enctime: 53.19
encoding rcpsp/j120.sm/j12056_4.sm nv: 1268586 nc: 2605831 enctime: 18.81
c File: j12056_4.smnaiveor1000.wcnf
c timeout
c final solution cost: 330
c CPU time: 67.454748
s UNKNOWN

c File: j12056_4.smor1000.wcnf
c timeout
c CPU time: 62.187647
s UNKNOWN


rcpsp/heur_output_log_0/heurj120.txt
encoding rcpsp/j120.sm/j12056_5.sm nv: 3096801 nc: 6441019 enctime: 63.02
encoding rcpsp/j120.sm/j12056_5.sm nv: 1513683 nc: 3145507 enctime: 23.05
c File: j12056_5.smnaiveor1000.wcnf
c timeout
c final solution cost: 419
c CPU time: 68.680874
s UNKNOWN

c File: j12056_5.smor1000.wcnf
c timeout
c CPU time: 62.844870
s UNKNOWN


rcpsp/heur_output_log_0/heurj120.txt
encoding rcpsp/j120.sm/j12056_6.sm nv: 3322092 nc: 6826298 enctime: 60.83
encoding rcpsp/j120.sm/j12056_6.sm nv: 1348572 nc: 2768378 enctime: 19.82
c File: j12056_6.smnaiveor1000.wcnf
c timeout
c final solution cost: 345
c CPU time: 68.680689
s UNKNOWN

c File: j12056_6.smor1000.wcnf
c timeout
c CPU time: 62.206026
s UNKNOWN


rcpsp/heur_output_log_0/heurj120.txt
encoding rcpsp/j120.sm/j12056_7.sm nv: 3177108 nc: 6611888 enctime: 64.21
encoding rcpsp/j120.sm/j12056_7.sm nv: 1588554 nc: 3303248 enctime: 24.71
c File: j12056_7.smnaiveor1000.wcnf
c timeout
c final solution cost: 367
c CPU time: 69.066206
s UNKNOWN

c File: j12056_7.smor1000.wcnf
c timeout
c CPU time: 63.002796
s UNKNOWN


rcpsp/heur_output_log_0/heurj120.txt
encoding rcpsp/j120.sm/j12056_8.sm nv: 3113298 nc: 6479781 enctime: 62.74
encoding rcpsp/j120.sm/j12056_8.sm nv: 1517328 nc: 3155361 enctime: 23.45
c File: j12056_8.smnaiveor1000.wcnf
c timeout
c final solution cost: 408
c CPU time: 68.933130
s UNKNOWN

c File: j12056_8.smor1000.wcnf
c timeout
c CPU time: 62.851194
s UNKNOWN


rcpsp/heur_output_log_0/heurj120.txt
encoding rcpsp/j120.sm/j12056_9.sm nv: 3453200 nc: 7199639 enctime: 70.84
encoding rcpsp/j120.sm/j12056_9.sm nv: 1615050 nc: 3364159 enctime: 23.16
c File: j12056_9.smnaiveor1000.wcnf
c timeout
c final solution cost: 349
c CPU time: 69.950333
s UNKNOWN

c File: j12056_9.smor1000.wcnf
c timeout
c CPU time: 63.004679
s UNKNOWN


rcpsp/heur_output_log_0/heurj120.txt
encoding rcpsp/j120.sm/j1205_6.sm nv: 1058561 nc: 2311721 enctime: 27.29
encoding rcpsp/j120.sm/j1205_6.sm nv: 148105 nc: 319113 enctime: 1.49
c File: j1205_6.smnaiveor1000.wcnf
c optimal
c final solution cost: 88
c CPU time: 6.310081
s OPTIMUM FOUND

c File: j1205_6.smor1000.wcnf
c optimal
c final solution cost: 88
c CPU time: 0.452103
s OPTIMUM FOUND


rcpsp/heur_output_log_0/heurj120.txt
encoding rcpsp/j120.sm/j12057_10.sm nv: 5179255 nc: 10580067 enctime: 88.02
encoding rcpsp/j120.sm/j12057_10.sm nv: 1459820 nc: 2978337 enctime: 20.38
c File: j12057_10.smnaiveor1000.wcnf
c timeout
c final solution cost: 192
c CPU time: 71.918802
s UNKNOWN

c File: j12057_10.smor1000.wcnf
c timeout
c CPU time: 62.079974
s UNKNOWN


rcpsp/heur_output_log_0/heurj120.txt
encoding rcpsp/j120.sm/j12057_1.sm nv: 5201102 nc: 10666953 enctime: 94.72
encoding rcpsp/j120.sm/j12057_1.sm nv: 1517602 nc: 3108453 enctime: 21.47
c File: j12057_1.smnaiveor1000.wcnf
c timeout
c final solution cost: 222
c CPU time: 72.354731
s UNKNOWN

c File: j12057_1.smor1000.wcnf
c timeout
c CPU time: 62.237395
s UNKNOWN


rcpsp/heur_output_log_0/heurj120.txt
encoding rcpsp/j120.sm/j12057_2.sm nv: 5220532 nc: 10654976 enctime: 88.82
encoding rcpsp/j120.sm/j12057_2.sm nv: 1466796 nc: 2989948 enctime: 20.00
c File: j12057_2.smnaiveor1000.wcnf
c timeout
c final solution cost: 196
c CPU time: 71.978138
s UNKNOWN

c File: j12057_2.smor1000.wcnf
c timeout
c CPU time: 62.083952
s UNKNOWN


